c FILE: i160-043

c SOURCE: From steinlib

c DESCRIPTION: Steinlib instance with 160 nodes and 2544 edges.

p edge 160 2544
e 1 5
e 1 8
e 1 14
e 1 15
e 1 23
e 1 25
e 1 27
e 1 30
e 1 31
e 1 33
e 1 35
e 1 38
e 1 41
e 1 48
e 1 51
e 1 53
e 1 57
e 1 63
e 1 65
e 1 80
e 1 85
e 1 86
e 1 87
e 1 89
e 1 90
e 1 95
e 1 97
e 1 104
e 1 106
e 1 107
e 1 118
e 1 122
e 1 124
e 1 131
e 1 137
e 1 140
e 1 144
e 1 148
e 1 153
e 1 155
e 1 156
e 2 6
e 2 7
e 2 8
e 2 12
e 2 14
e 2 22
e 2 27
e 2 35
e 2 36
e 2 40
e 2 47
e 2 53
e 2 54
e 2 58
e 2 66
e 2 69
e 2 80
e 2 82
e 2 86
e 2 89
e 2 90
e 2 112
e 2 116
e 2 120
e 2 130
e 2 131
e 2 133
e 2 136
e 2 142
e 2 146
e 2 147
e 2 155
e 2 160
e 3 6
e 3 7
e 3 11
e 3 17
e 3 21
e 3 24
e 3 32
e 3 33
e 3 36
e 3 39
e 3 41
e 3 43
e 3 46
e 3 48
e 3 55
e 3 62
e 3 65
e 3 71
e 3 74
e 3 76
e 3 89
e 3 90
e 3 92
e 3 109
e 3 111
e 3 113
e 3 119
e 3 121
e 3 132
e 3 147
e 3 149
e 3 153
e 3 159
e 4 6
e 4 8
e 4 9
e 4 19
e 4 22
e 4 37
e 4 43
e 4 47
e 4 52
e 4 61
e 4 62
e 4 63
e 4 70
e 4 79
e 4 81
e 4 85
e 4 89
e 4 108
e 4 109
e 4 118
e 4 121
e 4 123
e 4 129
e 4 136
e 4 138
e 4 147
e 4 151
e 4 153
e 4 154
e 4 158
e 4 159
e 5 6
e 5 8
e 5 15
e 5 18
e 5 19
e 5 32
e 5 42
e 5 49
e 5 52
e 5 55
e 5 63
e 5 72
e 5 77
e 5 84
e 5 85
e 5 91
e 5 94
e 5 103
e 5 108
e 5 114
e 5 118
e 5 120
e 5 132
e 5 140
e 5 141
e 5 142
e 5 143
e 5 152
e 5 153
e 6 7
e 6 10
e 6 15
e 6 19
e 6 22
e 6 24
e 6 27
e 6 29
e 6 31
e 6 32
e 6 37
e 6 38
e 6 44
e 6 45
e 6 50
e 6 69
e 6 81
e 6 82
e 6 84
e 6 89
e 6 91
e 6 96
e 6 97
e 6 98
e 6 106
e 6 111
e 6 112
e 6 114
e 6 118
e 6 124
e 6 131
e 6 134
e 6 135
e 6 136
e 6 139
e 6 140
e 6 144
e 6 157
e 6 159
e 7 9
e 7 26
e 7 30
e 7 37
e 7 38
e 7 39
e 7 42
e 7 43
e 7 45
e 7 46
e 7 50
e 7 51
e 7 56
e 7 76
e 7 98
e 7 100
e 7 102
e 7 108
e 7 110
e 7 119
e 7 124
e 7 130
e 7 135
e 7 138
e 7 149
e 7 152
e 7 154
e 7 155
e 7 160
e 8 11
e 8 14
e 8 15
e 8 22
e 8 28
e 8 30
e 8 32
e 8 39
e 8 58
e 8 63
e 8 68
e 8 75
e 8 81
e 8 82
e 8 84
e 8 85
e 8 95
e 8 97
e 8 102
e 8 103
e 8 110
e 8 116
e 8 119
e 8 120
e 8 121
e 8 122
e 8 123
e 8 127
e 8 135
e 8 138
e 8 143
e 8 146
e 8 148
e 8 156
e 8 158
e 9 16
e 9 18
e 9 25
e 9 28
e 9 32
e 9 34
e 9 41
e 9 42
e 9 54
e 9 59
e 9 62
e 9 82
e 9 94
e 9 96
e 9 99
e 9 111
e 9 112
e 9 117
e 9 119
e 9 131
e 9 132
e 9 134
e 9 137
e 9 138
e 9 139
e 9 141
e 9 142
e 9 143
e 9 158
e 10 12
e 10 32
e 10 37
e 10 39
e 10 46
e 10 58
e 10 60
e 10 62
e 10 87
e 10 91
e 10 94
e 10 101
e 10 105
e 10 109
e 10 116
e 10 123
e 10 128
e 10 129
e 10 133
e 10 134
e 10 146
e 10 152
e 10 153
e 10 155
e 10 158
e 11 17
e 11 18
e 11 20
e 11 21
e 11 24
e 11 29
e 11 30
e 11 32
e 11 37
e 11 39
e 11 45
e 11 47
e 11 50
e 11 51
e 11 62
e 11 64
e 11 74
e 11 75
e 11 83
e 11 84
e 11 85
e 11 95
e 11 102
e 11 105
e 11 106
e 11 114
e 11 117
e 11 119
e 11 124
e 11 125
e 11 129
e 11 133
e 11 155
e 12 15
e 12 18
e 12 36
e 12 43
e 12 46
e 12 53
e 12 54
e 12 55
e 12 68
e 12 71
e 12 72
e 12 81
e 12 83
e 12 95
e 12 105
e 12 107
e 12 109
e 12 120
e 12 136
e 12 143
e 12 144
e 13 19
e 13 30
e 13 31
e 13 35
e 13 36
e 13 41
e 13 43
e 13 47
e 13 68
e 13 69
e 13 87
e 13 89
e 13 92
e 13 96
e 13 97
e 13 98
e 13 108
e 13 112
e 13 118
e 13 120
e 13 123
e 13 131
e 13 136
e 13 139
e 13 143
e 13 146
e 13 147
e 13 153
e 13 157
e 13 159
e 14 30
e 14 37
e 14 40
e 14 42
e 14 54
e 14 55
e 14 56
e 14 57
e 14 58
e 14 64
e 14 66
e 14 70
e 14 73
e 14 75
e 14 92
e 14 107
e 14 110
e 14 115
e 14 116
e 14 118
e 14 123
e 14 126
e 14 127
e 14 134
e 14 136
e 14 138
e 14 139
e 14 140
e 14 151
e 14 153
e 14 154
e 15 18
e 15 24
e 15 27
e 15 35
e 15 38
e 15 43
e 15 49
e 15 52
e 15 65
e 15 66
e 15 72
e 15 74
e 15 75
e 15 81
e 15 83
e 15 97
e 15 108
e 15 113
e 15 121
e 15 123
e 15 126
e 15 127
e 15 132
e 15 133
e 15 136
e 15 144
e 15 152
e 15 153
e 15 154
e 15 156
e 16 21
e 16 22
e 16 27
e 16 56
e 16 60
e 16 64
e 16 65
e 16 71
e 16 81
e 16 89
e 16 95
e 16 99
e 16 103
e 16 105
e 16 106
e 16 108
e 16 110
e 16 112
e 16 115
e 16 116
e 16 118
e 16 120
e 16 122
e 16 125
e 16 131
e 16 133
e 16 148
e 16 149
e 16 151
e 16 152
e 16 160
e 17 18
e 17 22
e 17 23
e 17 24
e 17 25
e 17 29
e 17 31
e 17 35
e 17 44
e 17 47
e 17 50
e 17 53
e 17 54
e 17 68
e 17 71
e 17 76
e 17 77
e 17 86
e 17 96
e 17 100
e 17 101
e 17 108
e 17 111
e 17 113
e 17 116
e 17 122
e 17 129
e 17 142
e 17 144
e 17 147
e 17 149
e 17 151
e 17 160
e 18 22
e 18 23
e 18 27
e 18 33
e 18 35
e 18 43
e 18 48
e 18 50
e 18 56
e 18 61
e 18 62
e 18 71
e 18 73
e 18 83
e 18 88
e 18 96
e 18 101
e 18 107
e 18 113
e 18 115
e 18 125
e 18 142
e 18 143
e 18 144
e 18 151
e 19 28
e 19 31
e 19 32
e 19 39
e 19 40
e 19 48
e 19 58
e 19 61
e 19 66
e 19 73
e 19 77
e 19 79
e 19 82
e 19 83
e 19 84
e 19 86
e 19 88
e 19 93
e 19 94
e 19 97
e 19 118
e 19 119
e 19 123
e 19 124
e 19 126
e 19 127
e 19 129
e 19 133
e 19 142
e 19 147
e 19 153
e 19 154
e 20 27
e 20 44
e 20 45
e 20 46
e 20 50
e 20 59
e 20 60
e 20 63
e 20 65
e 20 66
e 20 67
e 20 70
e 20 79
e 20 84
e 20 88
e 20 89
e 20 90
e 20 93
e 20 94
e 20 97
e 20 99
e 20 104
e 20 108
e 20 111
e 20 114
e 20 117
e 20 124
e 20 125
e 20 127
e 20 130
e 20 145
e 20 151
e 20 160
e 21 23
e 21 29
e 21 31
e 21 36
e 21 40
e 21 45
e 21 53
e 21 56
e 21 58
e 21 66
e 21 73
e 21 85
e 21 86
e 21 90
e 21 95
e 21 99
e 21 102
e 21 105
e 21 110
e 21 112
e 21 115
e 21 128
e 21 133
e 21 134
e 21 135
e 21 136
e 21 139
e 21 143
e 21 153
e 21 156
e 21 159
e 21 160
e 22 27
e 22 31
e 22 50
e 22 54
e 22 56
e 22 61
e 22 64
e 22 65
e 22 66
e 22 68
e 22 86
e 22 88
e 22 93
e 22 98
e 22 102
e 22 109
e 22 128
e 22 133
e 22 147
e 22 154
e 22 159
e 22 160
e 23 24
e 23 26
e 23 35
e 23 36
e 23 40
e 23 44
e 23 46
e 23 59
e 23 63
e 23 64
e 23 68
e 23 78
e 23 79
e 23 82
e 23 94
e 23 100
e 23 113
e 23 118
e 23 119
e 23 120
e 23 122
e 23 124
e 23 126
e 23 132
e 23 137
e 23 140
e 23 151
e 23 152
e 23 153
e 23 158
e 23 160
e 24 25
e 24 31
e 24 40
e 24 43
e 24 44
e 24 55
e 24 60
e 24 69
e 24 75
e 24 86
e 24 88
e 24 96
e 24 115
e 24 121
e 24 130
e 24 131
e 24 137
e 24 143
e 24 149
e 24 151
e 24 155
e 25 27
e 25 37
e 25 38
e 25 40
e 25 43
e 25 45
e 25 53
e 25 54
e 25 61
e 25 68
e 25 71
e 25 72
e 25 76
e 25 86
e 25 91
e 25 98
e 25 101
e 25 112
e 25 123
e 25 128
e 25 132
e 25 136
e 25 137
e 25 139
e 25 149
e 25 156
e 25 158
e 25 159
e 26 31
e 26 33
e 26 36
e 26 37
e 26 38
e 26 39
e 26 45
e 26 48
e 26 83
e 26 85
e 26 90
e 26 92
e 26 94
e 26 108
e 26 111
e 26 112
e 26 114
e 26 122
e 26 123
e 26 125
e 26 130
e 26 135
e 26 136
e 26 139
e 26 143
e 26 148
e 26 153
e 26 154
e 26 159
e 27 32
e 27 36
e 27 42
e 27 45
e 27 48
e 27 50
e 27 51
e 27 54
e 27 60
e 27 70
e 27 73
e 27 74
e 27 76
e 27 79
e 27 87
e 27 90
e 27 93
e 27 109
e 27 110
e 27 116
e 27 119
e 27 122
e 27 127
e 27 133
e 27 136
e 27 139
e 27 149
e 27 151
e 27 153
e 27 155
e 27 157
e 28 30
e 28 34
e 28 42
e 28 43
e 28 46
e 28 51
e 28 63
e 28 66
e 28 73
e 28 84
e 28 85
e 28 88
e 28 90
e 28 91
e 28 92
e 28 96
e 28 104
e 28 113
e 28 118
e 28 122
e 28 125
e 28 127
e 28 130
e 28 140
e 28 154
e 29 31
e 29 32
e 29 42
e 29 43
e 29 47
e 29 53
e 29 65
e 29 67
e 29 76
e 29 87
e 29 94
e 29 95
e 29 96
e 29 104
e 29 105
e 29 108
e 29 110
e 29 111
e 29 114
e 29 127
e 29 134
e 29 136
e 29 137
e 29 158
e 30 32
e 30 33
e 30 37
e 30 40
e 30 49
e 30 52
e 30 56
e 30 58
e 30 62
e 30 66
e 30 82
e 30 92
e 30 96
e 30 99
e 30 101
e 30 102
e 30 105
e 30 113
e 30 115
e 30 146
e 30 151
e 30 158
e 31 38
e 31 40
e 31 52
e 31 57
e 31 58
e 31 59
e 31 60
e 31 62
e 31 66
e 31 68
e 31 69
e 31 77
e 31 80
e 31 84
e 31 87
e 31 89
e 31 91
e 31 99
e 31 109
e 31 111
e 31 112
e 31 114
e 31 122
e 31 125
e 31 136
e 31 139
e 31 141
e 31 144
e 31 148
e 31 154
e 31 155
e 31 159
e 32 42
e 32 52
e 32 58
e 32 63
e 32 67
e 32 77
e 32 91
e 32 92
e 32 98
e 32 101
e 32 104
e 32 106
e 32 110
e 32 114
e 32 116
e 32 119
e 32 121
e 32 127
e 32 136
e 32 140
e 32 147
e 32 151
e 32 153
e 32 154
e 33 35
e 33 40
e 33 41
e 33 50
e 33 51
e 33 61
e 33 64
e 33 65
e 33 69
e 33 71
e 33 78
e 33 80
e 33 81
e 33 82
e 33 83
e 33 97
e 33 98
e 33 99
e 33 101
e 33 127
e 33 128
e 33 129
e 33 134
e 33 138
e 33 139
e 33 154
e 33 156
e 33 160
e 34 37
e 34 48
e 34 56
e 34 65
e 34 79
e 34 84
e 34 89
e 34 95
e 34 98
e 34 100
e 34 101
e 34 102
e 34 108
e 34 110
e 34 128
e 34 136
e 34 137
e 34 148
e 34 149
e 34 151
e 34 152
e 35 41
e 35 43
e 35 45
e 35 50
e 35 61
e 35 67
e 35 69
e 35 72
e 35 73
e 35 78
e 35 114
e 35 115
e 35 116
e 35 120
e 35 123
e 35 128
e 35 129
e 35 131
e 35 135
e 35 140
e 35 150
e 35 154
e 35 159
e 36 37
e 36 38
e 36 39
e 36 40
e 36 49
e 36 52
e 36 56
e 36 57
e 36 66
e 36 72
e 36 80
e 36 86
e 36 102
e 36 107
e 36 111
e 36 115
e 36 118
e 36 119
e 36 120
e 36 122
e 36 126
e 36 132
e 36 145
e 36 149
e 37 45
e 37 47
e 37 52
e 37 61
e 37 69
e 37 80
e 37 85
e 37 86
e 37 87
e 37 95
e 37 98
e 37 102
e 37 110
e 37 111
e 37 128
e 37 129
e 37 137
e 37 146
e 37 152
e 37 156
e 38 45
e 38 48
e 38 59
e 38 61
e 38 62
e 38 73
e 38 79
e 38 80
e 38 82
e 38 85
e 38 90
e 38 92
e 38 94
e 38 99
e 38 103
e 38 104
e 38 105
e 38 107
e 38 111
e 38 114
e 38 121
e 38 126
e 38 129
e 38 132
e 38 133
e 38 137
e 38 140
e 38 152
e 38 155
e 39 46
e 39 58
e 39 65
e 39 68
e 39 77
e 39 81
e 39 85
e 39 102
e 39 116
e 39 117
e 39 118
e 39 121
e 39 127
e 39 128
e 39 130
e 39 135
e 39 136
e 39 143
e 39 149
e 39 156
e 39 158
e 40 42
e 40 44
e 40 49
e 40 52
e 40 59
e 40 60
e 40 74
e 40 82
e 40 87
e 40 89
e 40 97
e 40 100
e 40 106
e 40 111
e 40 114
e 40 119
e 40 133
e 40 143
e 40 151
e 40 153
e 41 46
e 41 47
e 41 55
e 41 57
e 41 58
e 41 59
e 41 86
e 41 87
e 41 96
e 41 102
e 41 106
e 41 108
e 41 115
e 41 120
e 41 137
e 41 138
e 41 141
e 41 148
e 41 156
e 41 159
e 42 46
e 42 56
e 42 59
e 42 60
e 42 61
e 42 70
e 42 74
e 42 79
e 42 85
e 42 87
e 42 88
e 42 92
e 42 94
e 42 100
e 42 108
e 42 109
e 42 125
e 42 134
e 42 140
e 42 142
e 42 146
e 42 147
e 42 153
e 42 154
e 42 159
e 43 62
e 43 73
e 43 75
e 43 81
e 43 82
e 43 88
e 43 90
e 43 93
e 43 95
e 43 98
e 43 100
e 43 113
e 43 118
e 43 120
e 43 122
e 43 123
e 43 124
e 43 128
e 43 134
e 43 138
e 43 141
e 43 144
e 43 145
e 43 154
e 44 54
e 44 66
e 44 68
e 44 73
e 44 74
e 44 77
e 44 96
e 44 102
e 44 104
e 44 107
e 44 112
e 44 119
e 44 120
e 44 131
e 44 133
e 44 136
e 44 142
e 44 145
e 44 148
e 44 150
e 44 159
e 45 50
e 45 54
e 45 56
e 45 62
e 45 66
e 45 76
e 45 88
e 45 99
e 45 109
e 45 114
e 45 116
e 45 120
e 45 122
e 45 124
e 45 125
e 45 132
e 45 139
e 45 140
e 45 141
e 45 145
e 45 148
e 45 157
e 46 59
e 46 71
e 46 76
e 46 78
e 46 82
e 46 83
e 46 84
e 46 92
e 46 96
e 46 97
e 46 101
e 46 109
e 46 113
e 46 114
e 46 115
e 46 120
e 46 137
e 46 139
e 46 144
e 46 151
e 46 152
e 46 156
e 47 49
e 47 55
e 47 77
e 47 89
e 47 94
e 47 96
e 47 107
e 47 109
e 47 111
e 47 114
e 47 115
e 47 116
e 47 119
e 47 123
e 47 127
e 47 134
e 47 135
e 47 136
e 47 137
e 47 140
e 47 143
e 47 147
e 47 152
e 47 153
e 47 154
e 47 158
e 48 59
e 48 60
e 48 62
e 48 64
e 48 65
e 48 68
e 48 70
e 48 73
e 48 78
e 48 81
e 48 84
e 48 89
e 48 90
e 48 94
e 48 102
e 48 107
e 48 112
e 48 116
e 48 123
e 48 141
e 48 149
e 48 155
e 49 57
e 49 63
e 49 65
e 49 66
e 49 69
e 49 71
e 49 83
e 49 87
e 49 88
e 49 94
e 49 97
e 49 104
e 49 110
e 49 112
e 49 120
e 49 124
e 49 128
e 49 129
e 49 142
e 49 158
e 50 51
e 50 55
e 50 56
e 50 60
e 50 69
e 50 71
e 50 83
e 50 84
e 50 85
e 50 87
e 50 95
e 50 113
e 50 114
e 50 115
e 50 119
e 50 121
e 50 125
e 50 129
e 50 135
e 50 144
e 50 148
e 50 150
e 50 155
e 50 156
e 51 52
e 51 53
e 51 57
e 51 58
e 51 64
e 51 65
e 51 68
e 51 71
e 51 73
e 51 75
e 51 82
e 51 93
e 51 97
e 51 98
e 51 105
e 51 111
e 51 112
e 51 119
e 51 130
e 51 133
e 51 134
e 51 145
e 51 146
e 51 154
e 52 57
e 52 59
e 52 64
e 52 70
e 52 77
e 52 87
e 52 94
e 52 110
e 52 113
e 52 114
e 52 116
e 52 122
e 52 134
e 52 135
e 52 138
e 52 140
e 52 143
e 52 160
e 53 54
e 53 58
e 53 66
e 53 68
e 53 69
e 53 80
e 53 89
e 53 90
e 53 92
e 53 93
e 53 96
e 53 97
e 53 98
e 53 99
e 53 105
e 53 106
e 53 107
e 53 108
e 53 109
e 53 114
e 53 120
e 53 124
e 53 133
e 53 134
e 53 135
e 53 142
e 53 146
e 53 150
e 53 153
e 53 157
e 53 158
e 54 75
e 54 88
e 54 94
e 54 106
e 54 107
e 54 108
e 54 122
e 54 124
e 54 125
e 54 126
e 54 132
e 54 146
e 54 154
e 55 56
e 55 60
e 55 67
e 55 68
e 55 69
e 55 76
e 55 77
e 55 83
e 55 85
e 55 86
e 55 90
e 55 92
e 55 99
e 55 109
e 55 110
e 55 112
e 55 117
e 55 126
e 55 135
e 55 136
e 55 137
e 55 147
e 55 148
e 55 151
e 55 156
e 56 63
e 56 73
e 56 79
e 56 80
e 56 82
e 56 89
e 56 99
e 56 103
e 56 104
e 56 105
e 56 112
e 56 133
e 56 147
e 56 159
e 57 70
e 57 74
e 57 76
e 57 94
e 57 103
e 57 104
e 57 107
e 57 113
e 57 117
e 57 121
e 57 131
e 57 132
e 57 134
e 57 135
e 57 136
e 57 137
e 57 139
e 57 141
e 57 144
e 57 151
e 57 153
e 57 155
e 58 59
e 58 67
e 58 89
e 58 92
e 58 94
e 58 99
e 58 106
e 58 111
e 58 113
e 58 114
e 58 119
e 58 120
e 58 126
e 58 145
e 58 147
e 58 152
e 58 153
e 58 154
e 58 157
e 59 60
e 59 75
e 59 79
e 59 84
e 59 86
e 59 87
e 59 88
e 59 90
e 59 97
e 59 100
e 59 112
e 59 119
e 59 120
e 59 131
e 59 133
e 59 135
e 59 146
e 59 150
e 59 151
e 59 155
e 59 158
e 60 62
e 60 68
e 60 69
e 60 73
e 60 91
e 60 99
e 60 110
e 60 114
e 60 118
e 60 130
e 60 135
e 60 140
e 60 148
e 60 151
e 60 160
e 61 65
e 61 73
e 61 77
e 61 79
e 61 85
e 61 86
e 61 100
e 61 103
e 61 109
e 61 114
e 61 117
e 61 120
e 61 127
e 61 128
e 61 130
e 61 132
e 61 133
e 61 141
e 61 142
e 61 148
e 61 160
e 62 65
e 62 84
e 62 89
e 62 92
e 62 100
e 62 101
e 62 104
e 62 106
e 62 110
e 62 123
e 62 126
e 62 133
e 62 134
e 62 139
e 62 141
e 62 143
e 62 148
e 62 151
e 62 156
e 62 158
e 63 69
e 63 75
e 63 85
e 63 90
e 63 91
e 63 96
e 63 107
e 63 116
e 63 121
e 63 130
e 63 146
e 63 147
e 63 153
e 63 157
e 63 158
e 63 160
e 64 67
e 64 71
e 64 81
e 64 82
e 64 89
e 64 99
e 64 101
e 64 106
e 64 108
e 64 110
e 64 117
e 64 120
e 64 125
e 64 131
e 64 139
e 64 152
e 64 153
e 64 157
e 64 159
e 65 70
e 65 71
e 65 79
e 65 83
e 65 87
e 65 90
e 65 97
e 65 103
e 65 107
e 65 111
e 65 118
e 65 127
e 65 130
e 65 132
e 65 136
e 65 142
e 65 144
e 65 149
e 65 155
e 65 158
e 66 70
e 66 71
e 66 81
e 66 86
e 66 87
e 66 89
e 66 94
e 66 102
e 66 111
e 66 114
e 66 117
e 66 125
e 66 128
e 66 138
e 66 139
e 66 147
e 66 148
e 67 68
e 67 86
e 67 88
e 67 102
e 67 113
e 67 124
e 67 125
e 67 130
e 67 133
e 67 134
e 67 138
e 67 150
e 67 153
e 67 154
e 67 158
e 68 69
e 68 72
e 68 77
e 68 79
e 68 87
e 68 95
e 68 97
e 68 101
e 68 111
e 68 122
e 68 125
e 68 129
e 68 130
e 68 134
e 68 135
e 68 150
e 69 80
e 69 81
e 69 87
e 69 94
e 69 100
e 69 108
e 69 112
e 69 118
e 69 121
e 69 125
e 69 133
e 69 143
e 69 155
e 69 158
e 70 77
e 70 78
e 70 84
e 70 92
e 70 94
e 70 99
e 70 101
e 70 102
e 70 107
e 70 111
e 70 117
e 70 118
e 70 126
e 70 142
e 70 146
e 70 155
e 70 157
e 71 82
e 71 92
e 71 94
e 71 98
e 71 99
e 71 103
e 71 106
e 71 116
e 71 119
e 71 133
e 71 134
e 71 144
e 71 154
e 72 74
e 72 75
e 72 81
e 72 88
e 72 91
e 72 94
e 72 102
e 72 105
e 72 108
e 72 110
e 72 114
e 72 117
e 72 126
e 72 133
e 72 134
e 72 139
e 72 141
e 72 147
e 72 150
e 72 151
e 72 160
e 73 76
e 73 80
e 73 85
e 73 86
e 73 89
e 73 91
e 73 93
e 73 96
e 73 97
e 73 103
e 73 106
e 73 112
e 73 127
e 73 128
e 73 135
e 73 137
e 74 82
e 74 91
e 74 97
e 74 99
e 74 104
e 74 112
e 74 114
e 74 116
e 74 121
e 74 122
e 74 125
e 74 128
e 74 131
e 74 136
e 74 141
e 74 143
e 74 154
e 74 157
e 75 87
e 75 93
e 75 104
e 75 106
e 75 109
e 75 115
e 75 119
e 75 121
e 75 122
e 75 127
e 75 130
e 75 132
e 75 139
e 75 144
e 75 149
e 75 150
e 75 151
e 75 152
e 75 154
e 75 156
e 75 159
e 76 79
e 76 80
e 76 84
e 76 85
e 76 89
e 76 93
e 76 95
e 76 97
e 76 100
e 76 103
e 76 107
e 76 110
e 76 112
e 76 120
e 76 121
e 76 128
e 76 137
e 76 138
e 76 144
e 76 153
e 76 154
e 77 82
e 77 90
e 77 106
e 77 112
e 77 115
e 77 119
e 77 132
e 77 141
e 77 144
e 77 148
e 77 149
e 77 154
e 77 159
e 78 82
e 78 88
e 78 89
e 78 90
e 78 102
e 78 106
e 78 112
e 78 118
e 78 131
e 78 132
e 78 134
e 78 149
e 78 151
e 78 160
e 79 80
e 79 84
e 79 85
e 79 86
e 79 87
e 79 88
e 79 99
e 79 103
e 79 104
e 79 132
e 79 133
e 79 137
e 79 138
e 79 141
e 79 149
e 79 152
e 79 154
e 79 159
e 80 84
e 80 85
e 80 87
e 80 88
e 80 91
e 80 93
e 80 98
e 80 102
e 80 103
e 80 112
e 80 116
e 80 119
e 80 127
e 80 130
e 80 131
e 80 138
e 80 141
e 80 146
e 80 157
e 80 160
e 81 87
e 81 90
e 81 93
e 81 95
e 81 97
e 81 101
e 81 113
e 81 114
e 81 117
e 81 123
e 81 124
e 81 125
e 81 133
e 81 135
e 81 136
e 81 151
e 81 155
e 81 160
e 82 88
e 82 93
e 82 94
e 82 95
e 82 105
e 82 121
e 82 131
e 82 132
e 82 140
e 82 144
e 82 151
e 82 154
e 82 158
e 83 87
e 83 94
e 83 95
e 83 106
e 83 121
e 83 122
e 83 124
e 83 127
e 83 132
e 83 141
e 83 150
e 84 88
e 84 90
e 84 92
e 84 94
e 84 97
e 84 103
e 84 104
e 84 105
e 84 106
e 84 112
e 84 115
e 84 123
e 84 130
e 84 135
e 84 144
e 84 148
e 84 158
e 85 90
e 85 91
e 85 93
e 85 94
e 85 99
e 85 100
e 85 102
e 85 103
e 85 105
e 85 113
e 85 115
e 85 121
e 85 123
e 85 124
e 85 145
e 85 153
e 85 159
e 86 90
e 86 94
e 86 96
e 86 101
e 86 106
e 86 116
e 86 122
e 86 124
e 86 125
e 86 128
e 86 141
e 86 151
e 86 152
e 87 90
e 87 100
e 87 101
e 87 103
e 87 116
e 87 118
e 87 119
e 87 123
e 87 124
e 87 132
e 87 134
e 87 137
e 87 147
e 87 151
e 87 158
e 87 159
e 88 115
e 88 116
e 88 119
e 88 122
e 88 126
e 88 131
e 88 132
e 88 134
e 88 135
e 88 145
e 88 150
e 88 158
e 89 90
e 89 91
e 89 92
e 89 98
e 89 103
e 89 112
e 89 117
e 89 130
e 89 135
e 89 140
e 89 154
e 90 96
e 90 98
e 90 109
e 90 110
e 90 113
e 90 131
e 90 133
e 90 137
e 90 138
e 90 141
e 90 151
e 90 159
e 90 160
e 91 93
e 91 100
e 91 110
e 91 119
e 91 126
e 91 133
e 91 143
e 91 149
e 91 151
e 91 152
e 91 154
e 91 158
e 92 93
e 92 98
e 92 99
e 92 100
e 92 107
e 92 118
e 92 121
e 92 133
e 92 140
e 92 146
e 92 149
e 92 154
e 92 155
e 93 96
e 93 103
e 93 110
e 93 111
e 93 113
e 93 125
e 93 133
e 93 136
e 93 152
e 93 155
e 93 157
e 94 97
e 94 98
e 94 100
e 94 104
e 94 106
e 94 110
e 94 111
e 94 115
e 94 117
e 94 133
e 94 143
e 94 151
e 95 102
e 95 105
e 95 112
e 95 122
e 95 127
e 95 130
e 95 140
e 95 143
e 95 147
e 95 150
e 96 97
e 96 99
e 96 100
e 96 108
e 96 125
e 96 131
e 96 132
e 96 138
e 96 140
e 96 141
e 96 145
e 96 154
e 96 156
e 96 160
e 97 98
e 97 99
e 97 101
e 97 116
e 97 118
e 97 134
e 97 135
e 97 138
e 97 140
e 97 141
e 97 142
e 97 144
e 97 146
e 97 149
e 97 150
e 97 151
e 97 155
e 97 158
e 97 159
e 98 102
e 98 105
e 98 106
e 98 112
e 98 115
e 98 121
e 98 126
e 98 131
e 98 134
e 98 135
e 98 140
e 98 141
e 98 142
e 98 148
e 98 153
e 98 160
e 99 101
e 99 110
e 99 111
e 99 115
e 99 124
e 99 128
e 99 133
e 99 134
e 99 150
e 99 157
e 100 107
e 100 108
e 100 113
e 100 118
e 100 121
e 100 126
e 100 131
e 100 133
e 101 105
e 101 106
e 101 114
e 101 115
e 101 117
e 101 119
e 101 131
e 101 140
e 101 145
e 101 148
e 101 156
e 101 158
e 102 109
e 102 114
e 102 117
e 102 118
e 102 124
e 102 127
e 102 130
e 102 134
e 102 145
e 102 147
e 102 150
e 102 159
e 102 160
e 103 114
e 103 119
e 103 124
e 103 125
e 103 129
e 103 131
e 103 133
e 103 142
e 103 152
e 103 155
e 103 156
e 103 159
e 104 106
e 104 110
e 104 124
e 104 129
e 104 130
e 104 131
e 104 132
e 104 140
e 104 145
e 105 111
e 105 115
e 105 116
e 105 123
e 105 127
e 105 136
e 105 139
e 105 140
e 105 142
e 105 146
e 105 148
e 105 149
e 105 157
e 106 114
e 106 118
e 106 124
e 106 131
e 106 147
e 106 152
e 106 153
e 107 114
e 107 132
e 107 136
e 107 139
e 107 142
e 107 150
e 107 155
e 107 160
e 108 111
e 108 113
e 108 123
e 108 129
e 108 134
e 108 140
e 108 148
e 108 149
e 109 114
e 109 119
e 109 121
e 109 122
e 109 131
e 109 136
e 109 139
e 109 144
e 109 146
e 109 152
e 109 153
e 109 154
e 109 158
e 110 113
e 110 115
e 110 122
e 110 126
e 110 129
e 110 131
e 110 132
e 110 133
e 110 134
e 110 135
e 110 145
e 110 147
e 110 149
e 111 113
e 111 118
e 111 122
e 111 126
e 111 129
e 111 137
e 111 143
e 111 145
e 111 153
e 111 160
e 112 113
e 112 116
e 112 132
e 112 151
e 112 154
e 113 114
e 113 122
e 113 131
e 113 136
e 113 137
e 113 140
e 113 143
e 113 144
e 113 145
e 113 146
e 113 147
e 113 148
e 113 151
e 113 157
e 114 117
e 114 120
e 114 122
e 114 131
e 114 135
e 114 136
e 114 138
e 114 142
e 114 146
e 114 147
e 114 155
e 114 156
e 115 125
e 115 133
e 115 140
e 115 157
e 116 119
e 116 130
e 116 131
e 116 138
e 116 160
e 117 120
e 117 138
e 117 142
e 117 144
e 117 150
e 117 155
e 117 158
e 118 127
e 118 131
e 118 135
e 118 138
e 118 146
e 118 149
e 118 150
e 118 154
e 118 159
e 119 126
e 119 127
e 119 128
e 119 133
e 119 134
e 119 139
e 119 141
e 119 143
e 119 149
e 119 152
e 119 153
e 119 156
e 120 122
e 120 124
e 120 133
e 120 140
e 120 141
e 120 142
e 120 147
e 120 149
e 120 152
e 121 126
e 121 128
e 121 141
e 121 142
e 121 148
e 121 150
e 121 151
e 121 152
e 121 155
e 121 157
e 121 159
e 122 136
e 122 142
e 122 150
e 122 153
e 122 155
e 122 157
e 123 128
e 123 129
e 123 136
e 123 147
e 123 149
e 123 154
e 124 128
e 124 131
e 124 135
e 124 136
e 124 143
e 124 144
e 124 147
e 124 150
e 124 151
e 125 127
e 125 130
e 125 142
e 125 143
e 126 128
e 126 140
e 126 149
e 126 151
e 126 153
e 126 154
e 127 131
e 127 132
e 127 134
e 127 135
e 127 139
e 127 140
e 127 143
e 127 144
e 127 145
e 127 148
e 127 151
e 127 158
e 128 131
e 128 138
e 128 141
e 128 142
e 128 150
e 128 155
e 128 158
e 129 132
e 129 133
e 129 134
e 129 135
e 129 136
e 129 141
e 129 146
e 129 148
e 129 149
e 129 152
e 130 134
e 130 136
e 130 137
e 130 138
e 130 141
e 130 145
e 130 159
e 131 133
e 131 137
e 131 139
e 131 147
e 131 154
e 131 157
e 131 158
e 131 159
e 132 136
e 132 145
e 132 157
e 132 160
e 133 135
e 133 139
e 133 152
e 133 158
e 133 160
e 134 135
e 134 142
e 134 150
e 134 151
e 134 152
e 134 154
e 134 158
e 134 160
e 135 137
e 135 150
e 135 151
e 135 157
e 135 158
e 136 137
e 136 141
e 136 143
e 136 150
e 136 152
e 136 160
e 137 144
e 137 151
e 137 153
e 138 144
e 138 146
e 138 147
e 138 148
e 138 150
e 138 155
e 138 158
e 138 159
e 138 160
e 139 141
e 139 142
e 139 144
e 139 159
e 139 160
e 140 143
e 140 144
e 140 145
e 140 146
e 140 147
e 140 154
e 140 159
e 141 144
e 141 150
e 141 154
e 142 143
e 142 147
e 142 150
e 142 157
e 142 158
e 143 150
e 143 152
e 143 157
e 143 158
e 144 148
e 144 158
e 145 150
e 145 153
e 145 157
e 146 156
e 146 160
e 147 150
e 147 159
e 148 156
e 149 155
e 150 155
e 150 158
e 151 156
e 151 157
e 152 156
e 154 156
e 154 157
e 154 158
e 154 159
e 155 160
e 156 157
e 156 160
e 157 160
e 159 160
